p cnf 204 876
78 92 96 0
53 104 114 0
95 100 121 0
126 128 0
66 160 162 0
117 132 137 138 0
98 130 141 0
59 170 0
62 122 202 0
84 107 144 0
86 88 90 125 127 136 0
80 81 143 0
75 102 111 0
73 146 0
63 65 147 0
55 57 77 94 112 0
51 54 68 0
49 61 118 120 0
83 110 0
87 89 196 198 0
82 148 149 0
74 150 153 154 155 156 0
158 159 0
161 163 164 0
116 139 166 167 0
58 60 140 168 0
169 171 0
70 173 175 178 0
50 101 0
180 182 203 0
76 142 0
151 184 0
106 134 185 186 0
187 188 189 190 191 0
56 113 193 0
67 72 0
109 195 0
197 199 200 0
115 174 177 0
123 201 0
181 204 0
145 183 0
-117 -130 0
-59 -117 0
-62 -117 0
-59 -130 0
-62 -130 0
-59 -62 0
-161 -166 0
-131 -161 0
-161 -173 0
-131 -166 0
-166 -173 0
-131 -173 0
-47 -85 0
-85 -142 0
-64 -85 0
-47 -142 0
-47 -64 0
-64 -142 0
-45 -179 0
-43 -179 0
-179 -183 0
-43 -45 0
-45 -183 0
-43 -183 0
-117 -161 0
-85 -117 0
-117 -179 0
-85 -161 0
-161 -179 0
-85 -179 0
-130 -166 0
-47 -130 0
-45 -130 0
-47 -166 0
-45 -166 0
-45 -47 0
-59 -131 0
-59 -142 0
-43 -59 0
-131 -142 0
-43 -131 0
-43 -142 0
-62 -173 0
-62 -64 0
-62 -183 0
-64 -173 0
-173 -183 0
-64 -183 0
-41 -78 0
-78 -194 0
-39 -78 0
-41 -194 0
-39 -41 0
-39 -194 0
-90 -144 0
-111 -144 0
-105 -144 0
-90 -111 0
-90 -105 0
-105 -111 0
-38 -57 0
-38 -61 0
-38 -148 0
-57 -61 0
-57 -148 0
-61 -148 0
-37 -150 0
-37 -167 0
-37 -175 0
-150 -167 0
-150 -175 0
-167 -175 0
-78 -144 0
-38 -78 0
-37 -78 0
-38 -144 0
-37 -144 0
-37 -38 0
-41 -90 0
-41 -57 0
-41 -150 0
-57 -90 0
-90 -150 0
-57 -150 0
-111 -194 0
-61 -194 0
-167 -194 0
-61 -111 0
-111 -167 0
-61 -167 0
-39 -105 0
-39 -148 0
-39 -175 0
-105 -148 0
-105 -175 0
-148 -175 0
-136 -147 0
-36 -136 0
-133 -136 0
-36 -147 0
-133 -147 0
-36 -133 0
-60 -153 0
-153 -169 0
-153 -178 0
-60 -169 0
-60 -178 0
-169 -178 0
-151 -203 0
-35 -203 0
-34 -203 0
-35 -151 0
-34 -151 0
-34 -35 0
-33 -187 0
-187 -195 0
-187 -197 0
-33 -195 0
-33 -197 0
-195 -197 0
-136 -153 0
-136 -203 0
-136 -187 0
-153 -203 0
-153 -187 0
-187 -203 0
-60 -147 0
-147 -151 0
-33 -147 0
-60 -151 0
-33 -60 0
-33 -151 0
-36 -169 0
-35 -36 0
-36 -195 0
-35 -169 0
-169 -195 0
-35 -195 0
-133 -178 0
-34 -133 0
-133 -197 0
-34 -178 0
-178 -197 0
-34 -197 0
-32 -114 0
-32 -121 0
-32 -108 0
-114 -121 0
-108 -114 0
-108 -121 0
-31 -66 0
-66 -138 0
-66 -98 0
-31 -138 0
-31 -98 0
-98 -138 0
-30 -88 0
-81 -88 0
-88 -102 0
-30 -81 0
-30 -102 0
-81 -102 0
-29 -77 0
-68 -77 0
-49 -77 0
-29 -68 0
-29 -49 0
-49 -68 0
-32 -66 0
-32 -88 0
-32 -77 0
-66 -88 0
-66 -77 0
-77 -88 0
-31 -114 0
-30 -114 0
-29 -114 0
-30 -31 0
-29 -31 0
-29 -30 0
-121 -138 0
-81 -121 0
-68 -121 0
-81 -138 0
-68 -138 0
-68 -81 0
-98 -108 0
-102 -108 0
-49 -108 0
-98 -102 0
-49 -98 0
-49 -102 0
-71 -96 0
-53 -96 0
-96 -100 0
-96 -128 0
-28 -96 0
-27 -96 0
-53 -71 0
-71 -100 0
-71 -128 0
-28 -71 0
-27 -71 0
-53 -100 0
-53 -128 0
-28 -53 0
-27 -53 0
-100 -128 0
-28 -100 0
-27 -100 0
-28 -128 0
-27 -128 0
-27 -28 0
-26 -160 0
-26 -165 0
-26 -132 0
-26 -172 0
-25 -26 0
-26 -122 0
-160 -165 0
-132 -160 0
-160 -172 0
-25 -160 0
-122 -160 0
-132 -165 0
-165 -172 0
-25 -165 0
-122 -165 0
-132 -172 0
-25 -132 0
-122 -132 0
-25 -172 0
-122 -172 0
-25 -122 0
-84 -86 0
-46 -84 0
-84 -143 0
-65 -84 0
-24 -84 0
-23 -84 0
-46 -86 0
-86 -143 0
-65 -86 0
-24 -86 0
-23 -86 0
-46 -143 0
-46 -65 0
-24 -46 0
-23 -46 0
-65 -143 0
-24 -143 0
-23 -143 0
-24 -65 0
-23 -65 0
-23 -24 0
-22 -55 0
-21 -22 0
-22 -54 0
-22 -89 0
-20 -22 0
-22 -82 0
-21 -55 0
-54 -55 0
-55 -89 0
-20 -55 0
-55 -82 0
-21 -54 0
-21 -89 0
-20 -21 0
-21 -82 0
-54 -89 0
-20 -54 0
-54 -82 0
-20 -89 0
-82 -89 0
-20 -82 0
-19 -154 0
-19 -158 0
-19 -163 0
-19 -140 0
-19 -171 0
-19 -70 0
-154 -158 0
-154 -163 0
-140 -154 0
-154 -171 0
-70 -154 0
-158 -163 0
-140 -158 0
-158 -171 0
-70 -158 0
-140 -163 0
-163 -171 0
-70 -163 0
-140 -171 0
-70 -140 0
-70 -171 0
-50 -180 0
-44 -50 0
-42 -50 0
-50 -184 0
-18 -50 0
-17 -50 0
-44 -180 0
-42 -180 0
-180 -184 0
-18 -180 0
-17 -180 0
-42 -44 0
-44 -184 0
-18 -44 0
-17 -44 0
-42 -184 0
-18 -42 0
-17 -42 0
-18 -184 0
-17 -184 0
-17 -18 0
-185 -188 0
-185 -193 0
-93 -185 0
-119 -185 0
-109 -185 0
-185 -199 0
-188 -193 0
-93 -188 0
-119 -188 0
-109 -188 0
-188 -199 0
-93 -193 0
-119 -193 0
-109 -193 0
-193 -199 0
-93 -119 0
-93 -109 0
-93 -199 0
-109 -119 0
-119 -199 0
-109 -199 0
-26 -96 0
-84 -96 0
-22 -96 0
-19 -96 0
-50 -96 0
-96 -185 0
-26 -84 0
-22 -26 0
-19 -26 0
-26 -50 0
-26 -185 0
-22 -84 0
-19 -84 0
-50 -84 0
-84 -185 0
-19 -22 0
-22 -50 0
-22 -185 0
-19 -50 0
-19 -185 0
-50 -185 0
-71 -160 0
-71 -86 0
-55 -71 0
-71 -154 0
-71 -180 0
-71 -188 0
-86 -160 0
-55 -160 0
-154 -160 0
-160 -180 0
-160 -188 0
-55 -86 0
-86 -154 0
-86 -180 0
-86 -188 0
-55 -154 0
-55 -180 0
-55 -188 0
-154 -180 0
-154 -188 0
-180 -188 0
-53 -165 0
-46 -53 0
-21 -53 0
-53 -158 0
-44 -53 0
-53 -193 0
-46 -165 0
-21 -165 0
-158 -165 0
-44 -165 0
-165 -193 0
-21 -46 0
-46 -158 0
-44 -46 0
-46 -193 0
-21 -158 0
-21 -44 0
-21 -193 0
-44 -158 0
-158 -193 0
-44 -193 0
-100 -132 0
-100 -143 0
-54 -100 0
-100 -163 0
-42 -100 0
-93 -100 0
-132 -143 0
-54 -132 0
-132 -163 0
-42 -132 0
-93 -132 0
-54 -143 0
-143 -163 0
-42 -143 0
-93 -143 0
-54 -163 0
-42 -54 0
-54 -93 0
-42 -163 0
-93 -163 0
-42 -93 0
-128 -172 0
-65 -128 0
-89 -128 0
-128 -140 0
-128 -184 0
-119 -128 0
-65 -172 0
-89 -172 0
-140 -172 0
-172 -184 0
-119 -172 0
-65 -89 0
-65 -140 0
-65 -184 0
-65 -119 0
-89 -140 0
-89 -184 0
-89 -119 0
-140 -184 0
-119 -140 0
-119 -184 0
-25 -28 0
-24 -28 0
-20 -28 0
-28 -171 0
-18 -28 0
-28 -109 0
-24 -25 0
-20 -25 0
-25 -171 0
-18 -25 0
-25 -109 0
-20 -24 0
-24 -171 0
-18 -24 0
-24 -109 0
-20 -171 0
-18 -20 0
-20 -109 0
-18 -171 0
-109 -171 0
-18 -109 0
-27 -122 0
-23 -27 0
-27 -82 0
-27 -70 0
-17 -27 0
-27 -199 0
-23 -122 0
-82 -122 0
-70 -122 0
-17 -122 0
-122 -199 0
-23 -82 0
-23 -70 0
-17 -23 0
-23 -199 0
-70 -82 0
-17 -82 0
-82 -199 0
-17 -70 0
-70 -199 0
-17 -199 0
-75 -127 0
-127 -146 0
-63 -127 0
-75 -146 0
-63 -75 0
-63 -146 0
-112 -118 0
-83 -112 0
-87 -112 0
-83 -118 0
-87 -118 0
-83 -87 0
-116 -155 0
-129 -155 0
-58 -155 0
-116 -129 0
-58 -116 0
-58 -129 0
-72 -189 0
-52 -189 0
-99 -189 0
-52 -72 0
-72 -99 0
-52 -99 0
-112 -127 0
-127 -155 0
-127 -189 0
-112 -155 0
-112 -189 0
-155 -189 0
-75 -118 0
-75 -116 0
-72 -75 0
-116 -118 0
-72 -118 0
-72 -116 0
-83 -146 0
-129 -146 0
-52 -146 0
-83 -129 0
-52 -83 0
-52 -129 0
-63 -87 0
-58 -63 0
-63 -99 0
-58 -87 0
-87 -99 0
-58 -99 0
-92 -104 0
-92 -95 0
-92 -126 0
-92 -152 0
-95 -104 0
-104 -126 0
-104 -152 0
-95 -126 0
-95 -152 0
-126 -152 0
-15 -16 0
-16 -137 0
-16 -176 0
-16 -202 0
-15 -137 0
-15 -176 0
-15 -202 0
-137 -176 0
-137 -202 0
-176 -202 0
-14 -40 0
-14 -51 0
-14 -196 0
-14 -149 0
-40 -51 0
-40 -196 0
-40 -149 0
-51 -196 0
-51 -149 0
-149 -196 0
-56 -106 0
-13 -106 0
-12 -106 0
-106 -200 0
-13 -56 0
-12 -56 0
-56 -200 0
-12 -13 0
-13 -200 0
-12 -200 0
-174 -181 0
-11 -174 0
-10 -174 0
-145 -174 0
-11 -181 0
-10 -181 0
-145 -181 0
-10 -11 0
-11 -145 0
-10 -145 0
-16 -92 0
-14 -92 0
-92 -106 0
-92 -174 0
-14 -16 0
-16 -106 0
-16 -174 0
-14 -106 0
-14 -174 0
-106 -174 0
-15 -104 0
-40 -104 0
-56 -104 0
-104 -181 0
-15 -40 0
-15 -56 0
-15 -181 0
-40 -56 0
-40 -181 0
-56 -181 0
-95 -137 0
-51 -95 0
-13 -95 0
-11 -95 0
-51 -137 0
-13 -137 0
-11 -137 0
-13 -51 0
-11 -51 0
-11 -13 0
-126 -176 0
-126 -196 0
-12 -126 0
-10 -126 0
-176 -196 0
-12 -176 0
-10 -176 0
-12 -196 0
-10 -196 0
-10 -12 0
-152 -202 0
-149 -152 0
-152 -200 0
-145 -152 0
-149 -202 0
-200 -202 0
-145 -202 0
-149 -200 0
-145 -149 0
-145 -200 0
-107 -125 0
-9 -107 0
-80 -107 0
-73 -107 0
-9 -125 0
-80 -125 0
-73 -125 0
-9 -80 0
-9 -73 0
-73 -80 0
-7 -156 0
-7 -159 0
-7 -164 0
-6 -7 0
-156 -159 0
-156 -164 0
-6 -156 0
-159 -164 0
-6 -159 0
-6 -164 0
-101 -182 0
-101 -135 0
-5 -101 0
-76 -101 0
-135 -182 0
-5 -182 0
-76 -182 0
-5 -135 0
-76 -135 0
-5 -76 0
-134 -190 0
-113 -134 0
-91 -134 0
-103 -134 0
-113 -190 0
-91 -190 0
-103 -190 0
-91 -113 0
-103 -113 0
-91 -103 0
-177 -201 0
-177 -204 0
-4 -177 0
-3 -177 0
-201 -204 0
-4 -201 0
-3 -201 0
-4 -204 0
-3 -204 0
-3 -4 0
-7 -107 0
-101 -107 0
-107 -134 0
-107 -177 0
-7 -101 0
-7 -134 0
-7 -177 0
-101 -134 0
-101 -177 0
-134 -177 0
-125 -156 0
-125 -182 0
-125 -190 0
-125 -201 0
-156 -182 0
-156 -190 0
-156 -201 0
-182 -190 0
-182 -201 0
-190 -201 0
-9 -159 0
-9 -135 0
-9 -113 0
-9 -204 0
-135 -159 0
-113 -159 0
-159 -204 0
-113 -135 0
-135 -204 0
-113 -204 0
-80 -164 0
-5 -80 0
-80 -91 0
-4 -80 0
-5 -164 0
-91 -164 0
-4 -164 0
-5 -91 0
-4 -5 0
-4 -91 0
-6 -73 0
-73 -76 0
-73 -103 0
-3 -73 0
-6 -76 0
-6 -103 0
-3 -6 0
-76 -103 0
-3 -76 0
-3 -103 0
-157 -162 0
-141 -157 0
-157 -170 0
-69 -157 0
-141 -162 0
-162 -170 0
-69 -162 0
-141 -170 0
-69 -141 0
-69 -170 0
-94 -192 0
-120 -192 0
-110 -192 0
-192 -198 0
-94 -120 0
-94 -110 0
-94 -198 0
-110 -120 0
-120 -198 0
-110 -198 0
-2 -74 0
-2 -139 0
-2 -97 0
-2 -168 0
-74 -139 0
-74 -97 0
-74 -168 0
-97 -139 0
-139 -168 0
-97 -168 0
-186 -191 0
-67 -186 0
-48 -186 0
-1 -186 0
-67 -191 0
-48 -191 0
-1 -191 0
-48 -67 0
-1 -67 0
-1 -48 0
-115 -123 0
-115 -124 0
-8 -115 0
-79 -115 0
-123 -124 0
-8 -123 0
-79 -123 0
-8 -124 0
-79 -124 0
-8 -79 0
-157 -192 0
-2 -157 0
-157 -186 0
-115 -157 0
-2 -192 0
-186 -192 0
-115 -192 0
-2 -186 0
-2 -115 0
-115 -186 0
-94 -162 0
-74 -162 0
-162 -191 0
-123 -162 0
-74 -94 0
-94 -191 0
-94 -123 0
-74 -191 0
-74 -123 0
-123 -191 0
-120 -141 0
-139 -141 0
-67 -141 0
-124 -141 0
-120 -139 0
-67 -120 0
-120 -124 0
-67 -139 0
-124 -139 0
-67 -124 0
-110 -170 0
-97 -170 0
-48 -170 0
-8 -170 0
-97 -110 0
-48 -110 0
-8 -110 0
-48 -97 0
-8 -97 0
-8 -48 0
-69 -198 0
-69 -168 0
-1 -69 0
-69 -79 0
-168 -198 0
-1 -198 0
-79 -198 0
-1 -168 0
-79 -168 0
-1 -79 0
